c n orig vars 74
p cnf 225 628
75 -1 0
75 -2 0
-75 1 2 0
76 -3 0
76 -4 0
-76 3 4 0
77 -5 0
77 -6 0
-77 5 6 0
78 -7 0
78 -8 0
-78 7 8 0
79 -9 0
79 -10 0
-79 9 10 0
80 -11 0
80 -12 0
-80 11 12 0
81 -13 0
81 -14 0
-81 13 14 0
82 -15 0
82 -16 0
-82 15 16 0
83 -17 0
83 -18 0
-83 17 18 0
84 -19 0
84 -20 0
-84 19 20 0
85 -21 0
85 -22 0
-85 21 22 0
86 -23 0
86 -24 0
-86 23 24 0
87 -25 0
87 -26 0
-87 25 26 0
88 -27 0
88 -28 0
-88 27 28 0
89 -29 0
89 -30 0
-89 29 30 0
90 -31 0
90 -32 0
-90 31 32 0
-91 75 0
-91 76 0
-91 77 0
-91 78 0
-91 79 0
-91 80 0
-91 81 0
-91 82 0
-91 83 0
-91 84 0
-91 85 0
-91 86 0
-91 87 0
-91 88 0
-91 89 0
-91 90 0
91 -75 -76 -77 -78 -79 -80 -81 -82 -83 -84 -85 -86 -87 -88 -89 -90 0
-91 0
92 -33 0
92 -40 0
92 -47 0
92 -54 0
92 -61 0
92 -68 0
-92 33 40 47 54 61 68 0
93 -34 0
93 -41 0
93 -48 0
93 -55 0
93 -62 0
93 -69 0
-93 34 41 48 55 62 69 0
94 -35 0
94 -42 0
94 -49 0
94 -56 0
94 -63 0
94 -70 0
-94 35 42 49 56 63 70 0
95 -36 0
95 -43 0
95 -50 0
95 -57 0
95 -64 0
95 -71 0
-95 36 43 50 57 64 71 0
96 -37 0
96 -44 0
96 -51 0
96 -58 0
96 -65 0
96 -72 0
-96 37 44 51 58 65 72 0
97 -38 0
97 -45 0
97 -52 0
97 -59 0
97 -66 0
97 -73 0
-97 38 45 52 59 66 73 0
98 -39 0
98 -46 0
98 -53 0
98 -60 0
98 -67 0
98 -74 0
-98 39 46 53 60 67 74 0
99 33 0
99 34 0
-99 -33 -34 0
100 33 0
100 35 0
-100 -33 -35 0
101 33 0
101 36 0
-101 -33 -36 0
102 33 0
102 37 0
-102 -33 -37 0
103 33 0
103 38 0
-103 -33 -38 0
104 33 0
104 39 0
-104 -33 -39 0
105 34 0
105 35 0
-105 -34 -35 0
106 34 0
106 36 0
-106 -34 -36 0
107 34 0
107 37 0
-107 -34 -37 0
108 34 0
108 38 0
-108 -34 -38 0
109 34 0
109 39 0
-109 -34 -39 0
110 35 0
110 36 0
-110 -35 -36 0
111 35 0
111 37 0
-111 -35 -37 0
112 35 0
112 38 0
-112 -35 -38 0
113 35 0
113 39 0
-113 -35 -39 0
114 36 0
114 37 0
-114 -36 -37 0
115 36 0
115 38 0
-115 -36 -38 0
116 36 0
116 39 0
-116 -36 -39 0
117 37 0
117 38 0
-117 -37 -38 0
118 37 0
118 39 0
-118 -37 -39 0
119 38 0
119 39 0
-119 -38 -39 0
120 40 0
120 41 0
-120 -40 -41 0
121 40 0
121 42 0
-121 -40 -42 0
122 40 0
122 43 0
-122 -40 -43 0
123 40 0
123 44 0
-123 -40 -44 0
124 40 0
124 45 0
-124 -40 -45 0
125 40 0
125 46 0
-125 -40 -46 0
126 41 0
126 42 0
-126 -41 -42 0
127 41 0
127 43 0
-127 -41 -43 0
128 41 0
128 44 0
-128 -41 -44 0
129 41 0
129 45 0
-129 -41 -45 0
130 41 0
130 46 0
-130 -41 -46 0
131 42 0
131 43 0
-131 -42 -43 0
132 42 0
132 44 0
-132 -42 -44 0
133 42 0
133 45 0
-133 -42 -45 0
134 42 0
134 46 0
-134 -42 -46 0
135 43 0
135 44 0
-135 -43 -44 0
136 43 0
136 45 0
-136 -43 -45 0
137 43 0
137 46 0
-137 -43 -46 0
138 44 0
138 45 0
-138 -44 -45 0
139 44 0
139 46 0
-139 -44 -46 0
140 45 0
140 46 0
-140 -45 -46 0
141 47 0
141 48 0
-141 -47 -48 0
142 47 0
142 49 0
-142 -47 -49 0
143 47 0
143 50 0
-143 -47 -50 0
144 47 0
144 51 0
-144 -47 -51 0
145 47 0
145 52 0
-145 -47 -52 0
146 47 0
146 53 0
-146 -47 -53 0
147 48 0
147 49 0
-147 -48 -49 0
148 48 0
148 50 0
-148 -48 -50 0
149 48 0
149 51 0
-149 -48 -51 0
150 48 0
150 52 0
-150 -48 -52 0
151 48 0
151 53 0
-151 -48 -53 0
152 49 0
152 50 0
-152 -49 -50 0
153 49 0
153 51 0
-153 -49 -51 0
154 49 0
154 52 0
-154 -49 -52 0
155 49 0
155 53 0
-155 -49 -53 0
156 50 0
156 51 0
-156 -50 -51 0
157 50 0
157 52 0
-157 -50 -52 0
158 50 0
158 53 0
-158 -50 -53 0
159 51 0
159 52 0
-159 -51 -52 0
160 51 0
160 53 0
-160 -51 -53 0
161 52 0
161 53 0
-161 -52 -53 0
162 54 0
162 55 0
-162 -54 -55 0
163 54 0
163 56 0
-163 -54 -56 0
164 54 0
164 57 0
-164 -54 -57 0
165 54 0
165 58 0
-165 -54 -58 0
166 54 0
166 59 0
-166 -54 -59 0
167 54 0
167 60 0
-167 -54 -60 0
168 55 0
168 56 0
-168 -55 -56 0
169 55 0
169 57 0
-169 -55 -57 0
170 55 0
170 58 0
-170 -55 -58 0
171 55 0
171 59 0
-171 -55 -59 0
172 55 0
172 60 0
-172 -55 -60 0
173 56 0
173 57 0
-173 -56 -57 0
174 56 0
174 58 0
-174 -56 -58 0
175 56 0
175 59 0
-175 -56 -59 0
176 56 0
176 60 0
-176 -56 -60 0
177 57 0
177 58 0
-177 -57 -58 0
178 57 0
178 59 0
-178 -57 -59 0
179 57 0
179 60 0
-179 -57 -60 0
180 58 0
180 59 0
-180 -58 -59 0
181 58 0
181 60 0
-181 -58 -60 0
182 59 0
182 60 0
-182 -59 -60 0
183 61 0
183 62 0
-183 -61 -62 0
184 61 0
184 63 0
-184 -61 -63 0
185 61 0
185 64 0
-185 -61 -64 0
186 61 0
186 65 0
-186 -61 -65 0
187 61 0
187 66 0
-187 -61 -66 0
188 61 0
188 67 0
-188 -61 -67 0
189 62 0
189 63 0
-189 -62 -63 0
190 62 0
190 64 0
-190 -62 -64 0
191 62 0
191 65 0
-191 -62 -65 0
192 62 0
192 66 0
-192 -62 -66 0
193 62 0
193 67 0
-193 -62 -67 0
194 63 0
194 64 0
-194 -63 -64 0
195 63 0
195 65 0
-195 -63 -65 0
196 63 0
196 66 0
-196 -63 -66 0
197 63 0
197 67 0
-197 -63 -67 0
198 64 0
198 65 0
-198 -64 -65 0
199 64 0
199 66 0
-199 -64 -66 0
200 64 0
200 67 0
-200 -64 -67 0
201 65 0
201 66 0
-201 -65 -66 0
202 65 0
202 67 0
-202 -65 -67 0
203 66 0
203 67 0
-203 -66 -67 0
204 68 0
204 69 0
-204 -68 -69 0
205 68 0
205 70 0
-205 -68 -70 0
206 68 0
206 71 0
-206 -68 -71 0
207 68 0
207 72 0
-207 -68 -72 0
208 68 0
208 73 0
-208 -68 -73 0
209 68 0
209 74 0
-209 -68 -74 0
210 69 0
210 70 0
-210 -69 -70 0
211 69 0
211 71 0
-211 -69 -71 0
212 69 0
212 72 0
-212 -69 -72 0
213 69 0
213 73 0
-213 -69 -73 0
214 69 0
214 74 0
-214 -69 -74 0
215 70 0
215 71 0
-215 -70 -71 0
216 70 0
216 72 0
-216 -70 -72 0
217 70 0
217 73 0
-217 -70 -73 0
218 70 0
218 74 0
-218 -70 -74 0
219 71 0
219 72 0
-219 -71 -72 0
220 71 0
220 73 0
-220 -71 -73 0
221 71 0
221 74 0
-221 -71 -74 0
222 72 0
222 73 0
-222 -72 -73 0
223 72 0
223 74 0
-223 -72 -74 0
224 73 0
224 74 0
-224 -73 -74 0
-225 92 0
-225 93 0
-225 94 0
-225 95 0
-225 96 0
-225 97 0
-225 98 0
-225 99 0
-225 100 0
-225 101 0
-225 102 0
-225 103 0
-225 104 0
-225 105 0
-225 106 0
-225 107 0
-225 108 0
-225 109 0
-225 110 0
-225 111 0
-225 112 0
-225 113 0
-225 114 0
-225 115 0
-225 116 0
-225 117 0
-225 118 0
-225 119 0
-225 120 0
-225 121 0
-225 122 0
-225 123 0
-225 124 0
-225 125 0
-225 126 0
-225 127 0
-225 128 0
-225 129 0
-225 130 0
-225 131 0
-225 132 0
-225 133 0
-225 134 0
-225 135 0
-225 136 0
-225 137 0
-225 138 0
-225 139 0
-225 140 0
-225 141 0
-225 142 0
-225 143 0
-225 144 0
-225 145 0
-225 146 0
-225 147 0
-225 148 0
-225 149 0
-225 150 0
-225 151 0
-225 152 0
-225 153 0
-225 154 0
-225 155 0
-225 156 0
-225 157 0
-225 158 0
-225 159 0
-225 160 0
-225 161 0
-225 162 0
-225 163 0
-225 164 0
-225 165 0
-225 166 0
-225 167 0
-225 168 0
-225 169 0
-225 170 0
-225 171 0
-225 172 0
-225 173 0
-225 174 0
-225 175 0
-225 176 0
-225 177 0
-225 178 0
-225 179 0
-225 180 0
-225 181 0
-225 182 0
-225 183 0
-225 184 0
-225 185 0
-225 186 0
-225 187 0
-225 188 0
-225 189 0
-225 190 0
-225 191 0
-225 192 0
-225 193 0
-225 194 0
-225 195 0
-225 196 0
-225 197 0
-225 198 0
-225 199 0
-225 200 0
-225 201 0
-225 202 0
-225 203 0
-225 204 0
-225 205 0
-225 206 0
-225 207 0
-225 208 0
-225 209 0
-225 210 0
-225 211 0
-225 212 0
-225 213 0
-225 214 0
-225 215 0
-225 216 0
-225 217 0
-225 218 0
-225 219 0
-225 220 0
-225 221 0
-225 222 0
-225 223 0
-225 224 0
225 -92 -93 -94 -95 -96 -97 -98 -99 -100 -101 -102 -103 -104 -105 -106 -107 -108 -109 -110 -111 -112 -113 -114 -115 -116 -117 -118 -119 -120 -121 -122 -123 -124 -125 -126 -127 -128 -129 -130 -131 -132 -133 -134 -135 -136 -137 -138 -139 -140 -141 -142 -143 -144 -145 -146 -147 -148 -149 -150 -151 -152 -153 -154 -155 -156 -157 -158 -159 -160 -161 -162 -163 -164 -165 -166 -167 -168 -169 -170 -171 -172 -173 -174 -175 -176 -177 -178 -179 -180 -181 -182 -183 -184 -185 -186 -187 -188 -189 -190 -191 -192 -193 -194 -195 -196 -197 -198 -199 -200 -201 -202 -203 -204 -205 -206 -207 -208 -209 -210 -211 -212 -213 -214 -215 -216 -217 -218 -219 -220 -221 -222 -223 -224 0
-225 0
